(set-logic ALL)
; benchmark generated from python API
(set-info :status unknown)
(declare-datatypes ((Proc 0)) (((coinbase) (foo_func))))
(declare-fun w_0 () Int)
(declare-fun success_1 () Bool)
(declare-fun t_success_0_0 () Bool)
(declare-fun aw_0_2 () Int)
(declare-fun aw_1_2 () Int)
(declare-fun aw_0_1 () Int)
(declare-fun aw_1_1 () Int)
(declare-fun aw_0_0 () Int)
(declare-fun aw_1_0 () Int)
(declare-fun t_w_0_0 () Int)
(declare-fun w_1 () Int)
(declare-fun err_1 () Bool)
(declare-fun xn_0 () Int)
(declare-fun xa_0 () Int)
(declare-fun success_2 () Bool)
(declare-fun t_success_1_0 () Bool)
(declare-fun aw_2_2 () Int)
(declare-fun aw_2_1 () Int)
(declare-fun aw_2_0 () Int)
(declare-fun t_w_1_0 () Int)
(declare-fun w_2 () Int)
(declare-fun err_2 () Bool)
(declare-fun xn_1 () Int)
(declare-fun xa_1 () Int)
(declare-fun f_1 () Proc)
(declare-fun block_num_1 () Int)
(declare-fun block_num_2 () Int)
(declare-fun success_3 () Bool)
(declare-fun t_success_2_0 () Bool)
(declare-fun aw_3_2 () Int)
(declare-fun aw_3_1 () Int)
(declare-fun aw_3_0 () Int)
(declare-fun t_w_2_0 () Int)
(declare-fun w_3 () Int)
(declare-fun err_3 () Bool)
(declare-fun xn_2 () Int)
(declare-fun xa_2 () Int)
(declare-fun f_2 () Proc)
(declare-fun block_num_3 () Int)
(declare-fun success_4 () Bool)
(declare-fun t_success_3_0 () Bool)
(declare-fun aw_4_2 () Int)
(declare-fun aw_4_1 () Int)
(declare-fun aw_4_0 () Int)
(declare-fun t_w_3_0 () Int)
(declare-fun w_4 () Int)
(declare-fun err_4 () Bool)
(declare-fun xn_3 () Int)
(declare-fun xa_3 () Int)
(declare-fun f_3 () Proc)
(declare-fun block_num_4 () Int)
(declare-fun success_5 () Bool)
(declare-fun t_success_4_0 () Bool)
(declare-fun aw_5_2 () Int)
(declare-fun aw_5_1 () Int)
(declare-fun aw_5_0 () Int)
(declare-fun t_w_4_0 () Int)
(declare-fun w_5 () Int)
(declare-fun err_5 () Bool)
(declare-fun xn_4 () Int)
(declare-fun xa_4 () Int)
(declare-fun f_4 () Proc)
(declare-fun block_num_5 () Int)
(declare-fun success_6 () Bool)
(declare-fun t_success_5_0 () Bool)
(declare-fun aw_6_2 () Int)
(declare-fun aw_6_1 () Int)
(declare-fun aw_6_0 () Int)
(declare-fun t_w_5_0 () Int)
(declare-fun w_6 () Int)
(declare-fun err_6 () Bool)
(declare-fun xn_5 () Int)
(declare-fun xa_5 () Int)
(declare-fun f_5 () Proc)
(declare-fun block_num_6 () Int)
(declare-fun success_7 () Bool)
(declare-fun t_success_6_0 () Bool)
(declare-fun aw_7_2 () Int)
(declare-fun aw_7_1 () Int)
(declare-fun aw_7_0 () Int)
(declare-fun t_w_6_0 () Int)
(declare-fun w_7 () Int)
(declare-fun err_7 () Bool)
(declare-fun xn_6 () Int)
(declare-fun xa_6 () Int)
(declare-fun f_6 () Proc)
(declare-fun block_num_7 () Int)
(assert
 (>= w_0 0))
(assert
 (let (($x2385 (= t_success_0_0 success_1)))
 (let (($x2383 (= aw_1_2 aw_0_2)))
 (let (($x2382 (= aw_1_1 aw_0_1)))
 (let (($x2381 (= aw_1_0 aw_0_0)))
 (let (($x2380 (= w_1 t_w_0_0)))
 (let (($x2387 (and (> xn_0 0) (= err_1 false) true (= t_success_0_0 false) (and $x2380 (and $x2381 $x2382 $x2383) $x2385))))
 (and (and (>= xa_0 0) (<= xa_0 2) (>= xn_0 0)) (and (>= aw_0_0 0) (>= aw_0_1 0) (>= aw_0_2 0)) (and (= t_w_0_0 (+ w_0 xn_0)) $x2387)))))))))
(assert
 (let (($x2431 (= t_success_1_0 success_2)))
 (let (($x2414 (= aw_2_2 aw_1_2)))
 (let (($x2413 (= aw_2_1 aw_1_1)))
 (let (($x2412 (= aw_2_0 aw_1_0)))
 (let (($x2415 (and $x2412 $x2413 $x2414)))
 (let (($x2411 (= w_2 t_w_1_0)))
 (let (($x2408 (= err_2 false)))
 (let (($x2430 (ite (and (>= t_w_1_0 10)) (and (= t_success_1_0 true) true) (and true true (= t_success_1_0 success_1)))))
 (let (($x2410 (= t_w_1_0 (+ w_1 xn_1))))
 (let (($x2422 (<= xa_1 2)))
 (let (($x2421 (>= xa_1 1)))
 (let (($x2435 (and $x2421 $x2422 (and $x2410 (and $x2430 $x2408 true (and $x2411 $x2415 $x2431))))))
 (let (($x2407 (= xa_1 0)))
 (let (($x2419 (and $x2407 (and $x2408 $x2410 (and $x2411 $x2415 (= success_1 success_2))))))
 (let (($x2406 (= f_1 coinbase)))
 (and (and (>= xn_1 0) (>= w_2 0)) (and (>= aw_1_0 0) (>= aw_1_1 0) (>= aw_1_2 0)) (>= block_num_2 block_num_1) (ite $x2406 $x2419 $x2435))))))))))))))))))
(assert
 (let (($x2480 (= t_success_2_0 success_3)))
 (let (($x2465 (= aw_3_2 aw_2_2)))
 (let (($x2464 (= aw_3_1 aw_2_1)))
 (let (($x2463 (= aw_3_0 aw_2_0)))
 (let (($x2466 (and $x2463 $x2464 $x2465)))
 (let (($x2462 (= w_3 t_w_2_0)))
 (let (($x2459 (= err_3 false)))
 (let (($x2479 (ite (and (>= t_w_2_0 10)) (and (= t_success_2_0 true) true) (and true true (= t_success_2_0 success_2)))))
 (let (($x2461 (= t_w_2_0 (+ w_2 xn_2))))
 (let (($x2472 (<= xa_2 2)))
 (let (($x2471 (>= xa_2 1)))
 (let (($x2484 (and $x2471 $x2472 (and $x2461 (and $x2479 $x2459 true (and $x2462 $x2466 $x2480))))))
 (let (($x2458 (= xa_2 0)))
 (let (($x2470 (and $x2458 (and $x2459 $x2461 (and $x2462 $x2466 (= success_2 success_3))))))
 (let (($x2457 (= f_2 coinbase)))
 (and (and (>= xn_2 0) (>= w_3 0)) (and (>= aw_2_0 0) (>= aw_2_1 0) (>= aw_2_2 0)) (>= block_num_3 block_num_2) (ite $x2457 $x2470 $x2484))))))))))))))))))
(assert
 (let (($x2529 (= t_success_3_0 success_4)))
 (let (($x2514 (= aw_4_2 aw_3_2)))
 (let (($x2513 (= aw_4_1 aw_3_1)))
 (let (($x2512 (= aw_4_0 aw_3_0)))
 (let (($x2515 (and $x2512 $x2513 $x2514)))
 (let (($x2511 (= w_4 t_w_3_0)))
 (let (($x2508 (= err_4 false)))
 (let (($x2528 (ite (and (>= t_w_3_0 10)) (and (= t_success_3_0 true) true) (and true true (= t_success_3_0 success_3)))))
 (let (($x2510 (= t_w_3_0 (+ w_3 xn_3))))
 (let (($x2521 (<= xa_3 2)))
 (let (($x2520 (>= xa_3 1)))
 (let (($x2533 (and $x2520 $x2521 (and $x2510 (and $x2528 $x2508 true (and $x2511 $x2515 $x2529))))))
 (let (($x2507 (= xa_3 0)))
 (let (($x2519 (and $x2507 (and $x2508 $x2510 (and $x2511 $x2515 (= success_3 success_4))))))
 (let (($x2506 (= f_3 coinbase)))
 (and (and (>= xn_3 0) (>= w_4 0)) (and (>= aw_3_0 0) (>= aw_3_1 0) (>= aw_3_2 0)) (>= block_num_4 block_num_3) (ite $x2506 $x2519 $x2533))))))))))))))))))
(assert
 (let (($x2578 (= t_success_4_0 success_5)))
 (let (($x2563 (= aw_5_2 aw_4_2)))
 (let (($x2562 (= aw_5_1 aw_4_1)))
 (let (($x2561 (= aw_5_0 aw_4_0)))
 (let (($x2564 (and $x2561 $x2562 $x2563)))
 (let (($x2560 (= w_5 t_w_4_0)))
 (let (($x2557 (= err_5 false)))
 (let (($x2577 (ite (and (>= t_w_4_0 10)) (and (= t_success_4_0 true) true) (and true true (= t_success_4_0 success_4)))))
 (let (($x2559 (= t_w_4_0 (+ w_4 xn_4))))
 (let (($x2570 (<= xa_4 2)))
 (let (($x2569 (>= xa_4 1)))
 (let (($x2582 (and $x2569 $x2570 (and $x2559 (and $x2577 $x2557 true (and $x2560 $x2564 $x2578))))))
 (let (($x2556 (= xa_4 0)))
 (let (($x2568 (and $x2556 (and $x2557 $x2559 (and $x2560 $x2564 (= success_4 success_5))))))
 (let (($x2555 (= f_4 coinbase)))
 (and (and (>= xn_4 0) (>= w_5 0)) (and (>= aw_4_0 0) (>= aw_4_1 0) (>= aw_4_2 0)) (>= block_num_5 block_num_4) (ite $x2555 $x2568 $x2582))))))))))))))))))
(assert
 (let (($x2627 (= t_success_5_0 success_6)))
 (let (($x2612 (= aw_6_2 aw_5_2)))
 (let (($x2611 (= aw_6_1 aw_5_1)))
 (let (($x2610 (= aw_6_0 aw_5_0)))
 (let (($x2613 (and $x2610 $x2611 $x2612)))
 (let (($x2609 (= w_6 t_w_5_0)))
 (let (($x2606 (= err_6 false)))
 (let (($x2626 (ite (and (>= t_w_5_0 10)) (and (= t_success_5_0 true) true) (and true true (= t_success_5_0 success_5)))))
 (let (($x2608 (= t_w_5_0 (+ w_5 xn_5))))
 (let (($x2619 (<= xa_5 2)))
 (let (($x2618 (>= xa_5 1)))
 (let (($x2631 (and $x2618 $x2619 (and $x2608 (and $x2626 $x2606 true (and $x2609 $x2613 $x2627))))))
 (let (($x2605 (= xa_5 0)))
 (let (($x2617 (and $x2605 (and $x2606 $x2608 (and $x2609 $x2613 (= success_5 success_6))))))
 (let (($x2604 (= f_5 coinbase)))
 (and (and (>= xn_5 0) (>= w_6 0)) (and (>= aw_5_0 0) (>= aw_5_1 0) (>= aw_5_2 0)) (>= block_num_6 block_num_5) (ite $x2604 $x2617 $x2631))))))))))))))))))
(assert
 (let (($x2676 (= t_success_6_0 success_7)))
 (let (($x2661 (= aw_7_2 aw_6_2)))
 (let (($x2660 (= aw_7_1 aw_6_1)))
 (let (($x2659 (= aw_7_0 aw_6_0)))
 (let (($x2662 (and $x2659 $x2660 $x2661)))
 (let (($x2658 (= w_7 t_w_6_0)))
 (let (($x2655 (= err_7 false)))
 (let (($x2675 (ite (and (>= t_w_6_0 10)) (and (= t_success_6_0 true) true) (and true true (= t_success_6_0 success_6)))))
 (let (($x2657 (= t_w_6_0 (+ w_6 xn_6))))
 (let (($x2668 (<= xa_6 2)))
 (let (($x2667 (>= xa_6 1)))
 (let (($x2680 (and $x2667 $x2668 (and $x2657 (and $x2675 $x2655 true (and $x2658 $x2662 $x2676))))))
 (let (($x2654 (= xa_6 0)))
 (let (($x2666 (and $x2654 (and $x2655 $x2657 (and $x2658 $x2662 (= success_6 success_7))))))
 (let (($x2653 (= f_6 coinbase)))
 (and (and (>= xn_6 0) (>= w_7 0)) (and (>= aw_6_0 0) (>= aw_6_1 0) (>= aw_6_2 0)) (>= block_num_7 block_num_6) (ite $x2653 $x2666 $x2680))))))))))))))))))
(assert
 (let (($x2721 (exists ((xa_q Int) )(let (($x2716 (forall ((xn_q0 Int) (f_q0 Proc) (wq0 Int) (awq0_0 Int) (awq0_1 Int) (awq0_2 Int) (t_wq0_0 Int) (t_wq0_1 Int) (t_wq0_2 Int) (t_wq0_3 Int) (t_wq0_4 Int) (t_wq0_5 Int) (t_wq0_6 Int) (t_wq0_7 Int) (t_wq0_8 Int) (t_wq0_9 Int) (t_wq0_10 Int) (t_wq0_11 Int) (t_wq0_12 Int) (t_wq0_13 Int) (t_wq0_14 Int) (t_wq0_15 Int) (t_wq0_16 Int) (t_wq0_17 Int) (t_wq0_18 Int) (t_wq0_19 Int) (t_wq0_20 Int) (t_wq0_21 Int) (t_wq0_22 Int) (t_wq0_23 Int) (t_wq0_24 Int) (t_wq0_25 Int) (t_wq0_26 Int) (t_wq0_27 Int) (t_wq0_28 Int) (t_wq0_29 Int) (t_wq0_30 Int) (t_wq0_31 Int) (t_wq0_32 Int) (t_wq0_33 Int) (t_wq0_34 Int) (t_wq0_35 Int) (t_wq0_36 Int) (t_wq0_37 Int) (t_wq0_38 Int) (t_wq0_39 Int) (t_wq0_40 Int) (t_wq0_41 Int) (t_wq0_42 Int) (t_wq0_43 Int) (t_wq0_44 Int) (t_wq0_45 Int) (t_wq0_46 Int) (t_wq0_47 Int) (t_wq0_48 Int) (t_wq0_49 Int) (t_awq0_0_0 Int) (t_awq0_0_1 Int) (t_awq0_0_2 Int) (t_awq0_1_0 Int) (t_awq0_1_1 Int) (t_awq0_1_2 Int) (t_awq0_2_0 Int) (t_awq0_2_1 Int) (t_awq0_2_2 Int) (t_awq0_3_0 Int) (t_awq0_3_1 Int) (t_awq0_3_2 Int) (t_awq0_4_0 Int) (t_awq0_4_1 Int) (t_awq0_4_2 Int) (t_awq0_5_0 Int) (t_awq0_5_1 Int) (t_awq0_5_2 Int) (t_awq0_6_0 Int) (t_awq0_6_1 Int) (t_awq0_6_2 Int) (t_awq0_7_0 Int) (t_awq0_7_1 Int) (t_awq0_7_2 Int) (t_awq0_8_0 Int) (t_awq0_8_1 Int) (t_awq0_8_2 Int) (t_awq0_9_0 Int) (t_awq0_9_1 Int) (t_awq0_9_2 Int) (t_awq0_10_0 Int) (t_awq0_10_1 Int) (t_awq0_10_2 Int) (t_awq0_11_0 Int) (t_awq0_11_1 Int) (t_awq0_11_2 Int) (t_awq0_12_0 Int) (t_awq0_12_1 Int) (t_awq0_12_2 Int) (t_awq0_13_0 Int) (t_awq0_13_1 Int) (t_awq0_13_2 Int) (t_awq0_14_0 Int) (t_awq0_14_1 Int) (t_awq0_14_2 Int) (t_awq0_15_0 Int) (t_awq0_15_1 Int) (t_awq0_15_2 Int) (t_awq0_16_0 Int) (t_awq0_16_1 Int) (t_awq0_16_2 Int) (t_awq0_17_0 Int) (t_awq0_17_1 Int) (t_awq0_17_2 Int) (t_awq0_18_0 Int) (t_awq0_18_1 Int) (t_awq0_18_2 Int) (t_awq0_19_0 Int) (t_awq0_19_1 Int) (t_awq0_19_2 Int) (t_awq0_20_0 Int) (t_awq0_20_1 Int) (t_awq0_20_2 Int) (t_awq0_21_0 Int) (t_awq0_21_1 Int) (t_awq0_21_2 Int) (t_awq0_22_0 Int) (t_awq0_22_1 Int) (t_awq0_22_2 Int) (t_awq0_23_0 Int) (t_awq0_23_1 Int) (t_awq0_23_2 Int) (t_awq0_24_0 Int) (t_awq0_24_1 Int) (t_awq0_24_2 Int) (t_awq0_25_0 Int) (t_awq0_25_1 Int) (t_awq0_25_2 Int) (t_awq0_26_0 Int) (t_awq0_26_1 Int) (t_awq0_26_2 Int) (t_awq0_27_0 Int) (t_awq0_27_1 Int) (t_awq0_27_2 Int) (t_awq0_28_0 Int) (t_awq0_28_1 Int) (t_awq0_28_2 Int) (t_awq0_29_0 Int) (t_awq0_29_1 Int) (t_awq0_29_2 Int) (t_awq0_30_0 Int) (t_awq0_30_1 Int) (t_awq0_30_2 Int) (t_awq0_31_0 Int) (t_awq0_31_1 Int) (t_awq0_31_2 Int) (t_awq0_32_0 Int) (t_awq0_32_1 Int) (t_awq0_32_2 Int) (t_awq0_33_0 Int) (t_awq0_33_1 Int) (t_awq0_33_2 Int) (t_awq0_34_0 Int) (t_awq0_34_1 Int) (t_awq0_34_2 Int) (t_awq0_35_0 Int) (t_awq0_35_1 Int) (t_awq0_35_2 Int) (t_awq0_36_0 Int) (t_awq0_36_1 Int) (t_awq0_36_2 Int) (t_awq0_37_0 Int) (t_awq0_37_1 Int) (t_awq0_37_2 Int) (t_awq0_38_0 Int) (t_awq0_38_1 Int) (t_awq0_38_2 Int) (t_awq0_39_0 Int) (t_awq0_39_1 Int) (t_awq0_39_2 Int) (t_awq0_40_0 Int) (t_awq0_40_1 Int) (t_awq0_40_2 Int) (t_awq0_41_0 Int) (t_awq0_41_1 Int) (t_awq0_41_2 Int) (t_awq0_42_0 Int) (t_awq0_42_1 Int) (t_awq0_42_2 Int) (t_awq0_43_0 Int) (t_awq0_43_1 Int) (t_awq0_43_2 Int) (t_awq0_44_0 Int) (t_awq0_44_1 Int) (t_awq0_44_2 Int) (t_awq0_45_0 Int) (t_awq0_45_1 Int) (t_awq0_45_2 Int) (t_awq0_46_0 Int) (t_awq0_46_1 Int) (t_awq0_46_2 Int) (t_awq0_47_0 Int) (t_awq0_47_1 Int) (t_awq0_47_2 Int) (t_awq0_48_0 Int) (t_awq0_48_1 Int) (t_awq0_48_2 Int) (t_awq0_49_0 Int) (t_awq0_49_1 Int) (t_awq0_49_2 Int) (err_q0 Bool) (successq0 Bool) (t_successq0_0 Bool) (t_successq0_1 Bool) (t_successq0_2 Bool) (t_successq0_3 Bool) (t_successq0_4 Bool) (t_successq0_5 Bool) (t_successq0_6 Bool) (t_successq0_7 Bool) (t_successq0_8 Bool) (t_successq0_9 Bool) (t_successq0_10 Bool) (t_successq0_11 Bool) (t_successq0_12 Bool) (t_successq0_13 Bool) (t_successq0_14 Bool) (t_successq0_15 Bool) (t_successq0_16 Bool) (t_successq0_17 Bool) (t_successq0_18 Bool) (t_successq0_19 Bool) (t_successq0_20 Bool) (t_successq0_21 Bool) (t_successq0_22 Bool) (t_successq0_23 Bool) (t_successq0_24 Bool) (t_successq0_25 Bool) (t_successq0_26 Bool) (t_successq0_27 Bool) (t_successq0_28 Bool) (t_successq0_29 Bool) (t_successq0_30 Bool) (t_successq0_31 Bool) (t_successq0_32 Bool) (t_successq0_33 Bool) (t_successq0_34 Bool) (t_successq0_35 Bool) (t_successq0_36 Bool) (t_successq0_37 Bool) (t_successq0_38 Bool) (t_successq0_39 Bool) (t_successq0_40 Bool) (t_successq0_41 Bool) (t_successq0_42 Bool) (t_successq0_43 Bool) (t_successq0_44 Bool) (t_successq0_45 Bool) (t_successq0_46 Bool) (t_successq0_47 Bool) (t_successq0_48 Bool) (t_successq0_49 Bool) )(let (($x3000 (and (= awq0_0 aw_7_0) (= awq0_1 aw_7_1) (= awq0_2 aw_7_2))))
(let (($x3001 (= wq0 t_wq0_0)))
(let (($x3003 (= err_q0 false)))
(let (($x3010 (ite (and (>= t_wq0_0 10)) (and (= t_successq0_0 true) true) (and true true (= t_successq0_0 success_7)))))
(let (($x3013 (= t_wq0_0 (+ w_7 xn_q0))))
(let (($x2709 (and (>= xa_q 1) (<= xa_q 2) (and $x3013 (and $x3010 $x3003 true (and $x3001 $x3000 (= t_successq0_0 successq0)))))))
(let (($x2711 (and (= xa_q 0) (and $x3003 $x3013 (and $x3001 $x3000 (= success_7 successq0))))))
(let (($x2713 (and (and (>= xn_q0 0) (>= wq0 0)) (and (>= aw_7_0 0) (>= aw_7_1 0) (>= aw_7_2 0)) (>= block_num_7 block_num_7) (ite (= f_q0 coinbase) $x2711 $x2709))))
(or (not $x2713) (not successq0)))))))))))
))
(and (and (>= xa_q 1) (<= xa_q 2)) (> w_7 0) $x2716)))
))
(and $x2721)))
(check-sat)

(get-model)